NAME: rue_25_2
TYPE: TSP
DIMENSION: 25
EDGE_WEIGHT_TYPE: EUC_2D
NODE_COORD_SECTION
1 9 1
2 35 16
3 31 2
4 30 36
5 30 40
6 38 39
7 9 22
8 34 35
9 30 22
10 24 19
11 26 35
12 26 17
13 28 30
14 12 24
15 4 2
16 28 8
17 11 18
18 26 15
19 23 31
20 12 38
21 24 34
22 30 8
23 34 30
24 16 15
25 33 13

